(declare-const a Real)
(declare-const b Real)
(declare-const c Real)
(assert (= (+ a b c) 1))
(assert (> a 0))
(assert (> b 0))
(assert (> c 0))
(assert (not (<= (+ 20 (* 8 a) (* 8 c) (* 8 (pow b 2)) (* -4 (pow 3 (/ 1 2)) (pow (+ (* 16 a) (* 16 b) (* 16 c) (* 16 a b) (* 16 a c) (* 16 b c)) (pow 2 -1))) (* 8 a (pow 2 (/ 1 2))) (* 8 c (pow 2 (/ 1 2)))) 0)))
(check-sat)
(get-model)
(exit)